*******************************************************************************
* Problem type: SC-CP16
* Input file: ../instances/bp-100-20-4-10-15454.dat
* 4 objectives
* 100 variables
* 20 constraints
*******************************************************************************

min: +4 x1 +2 x2 +1 x3 +2 x4 ;
 +1 x4 >= 1 ;
 +1 x2 >= 1 ;

